proyfinal/src/viki/013/andrea/andrea-localstore/experimentInOfficeAgust.take6/worker_8/a546533d-b1ea-4f97-aeac-40d3029d197a.als.cnf.out
Reading from standard input... Use '--help' for help.
============================[ Problem Statistics ]=============================
|                                                                             |
|  Number of variables:         87638                                         |
|  Number of clauses:          161767                                         |
|  Parse time:                   0.04 s                                       |
|                                                                             |
============================[ Search Statistics ]==============================
| Conflicts |          ORIGINAL         |          LEARNT          | Progress |
|           |    Vars  Clauses Literals |    Limit  Clauses Lit/Cl |          |
===============================================================================
|       100 |   62009   103876   259512 |    38087      100     52 | 29.244 % |
|       250 |   62007   103832   259422 |    41896      248     38 | 29.246 % |
|       475 |   62007   103829   259416 |    46086      473     41 | 29.246 % |
|       812 |   62007   103829   259416 |    50694      810     87 | 29.246 % |
|      1318 |   62007   103829   259416 |    55764     1316     87 | 29.246 % |
|      2077 |   62007   103829   259416 |    61340     2075     86 | 29.246 % |
|      3216 |   62007   103829   259416 |    67474     3214    105 | 29.246 % |
|      4924 |   61987   103745   259223 |    74222     4921     95 | 29.269 % |
|      7486 |   61987   103745   259223 |    81644     7483     85 | 29.269 % |
|     11330 |   49097    66134   167003 |    89809    10620     87 | 43.977 % |
===============================================================================
restarts              : 62
conflicts             : 14504          (6901 /sec)
decisions             : 42125          (0.00 % random) (20042 /sec)
propagations          : 20523800       (9764822 /sec)
conflict literals     : 1092025        (51.02 % deleted)
Memory used           : 37.41 MB
CPU time              : 2.10181 s

UNSATISFIABLE
